%chk=mol.chk
%nproc=24
%mem=20GB

# PBE1PBE/6-31G(d',p') Opt Int=(Grid=SuperFineGrid)  SCF=(XQC, MaxCycle=500) SCRF=(Solvent=Ethanol)

mol1

0 1
C          0.93176       -0.13309       -0.03315
C          2.40033        0.04130       -0.02653
C          3.21289        1.15361       -0.05633
C          4.54243        0.65725       -0.02828
C          5.84930        1.36081       -0.04980
N          4.55083       -0.68605        0.01630
N          3.25348       -1.02438        0.01179
N          2.71529        2.46209       -0.13661
N          3.54456        3.34441        0.14938
C          3.14436        4.64197        0.05517
C          3.95432        5.71179       -0.00916
C          3.13647        6.96411       -0.04116
N          3.37611        7.74707       -1.23478
C          1.73805        6.42650       -0.01802
C          1.76641        5.08610        0.04762
H          0.41295        0.82961       -0.03179
H          0.60868       -0.69081        0.85263
H          0.61509       -0.68797       -0.92185
H          5.76035        2.44659       -0.09663
H          6.43291        1.04583       -0.92158
H          6.42342        1.11600        0.85041
H          3.02016       -2.01185        0.03305
H          5.03194        5.67358       -0.00045
H          3.32585        7.56862        0.85232
H          3.21988        7.15947       -2.05260
H          4.35476        8.02210       -1.26446
H          0.85015        7.04013       -0.03606
H          0.90999        4.43150        0.08606
 
