%chk=mol.chk
%nproc=24
%mem=20GB

# PBE1PBE/6-31G(d',p') Opt Int=(Grid=SuperFineGrid)  SCF=(XQC, MaxCycle=500) SCRF=(Solvent=Ethanol)

mol1

0 1
C          1.27911        0.27183       -0.02676
C          2.75949        0.26059       -0.02034
N          3.41032       -0.91156        0.04248
O          4.75811       -0.59947        0.03085
C          4.91443        0.75004       -0.04122
C          6.29781        1.25357       -0.05716
C          3.67548        1.33836       -0.07847
N          3.46372        2.71962       -0.17789
N          2.29274        3.07783        0.06158
C          2.13049        4.47917       -0.05490
C          0.99244        4.98625       -0.72511
N         -0.02934        4.12471       -1.18187
C          0.76454        6.36964       -0.74240
C          1.68888        7.25401       -0.18446
C          2.83282        6.76163        0.43731
C          3.04417        5.38355        0.51408
H          0.86995       -0.74412       -0.02810
H          0.90148        0.78166       -0.91844
H          0.89396        0.78317        0.86098
H          7.02129        0.43154       -0.06582
H          6.49276        1.86512        0.82826
H          6.47446        1.86659       -0.94665
H          0.32989        3.19750       -1.39492
H         -0.58216        4.51456       -1.93851
H         -0.14287        6.76811       -1.18886
H          1.50620        8.32452       -0.22042
H          3.54841        7.44701        0.88376
H          3.92109        5.00983        1.03670
 
