%chk=mol.chk
%nproc=24
%mem=20GB

# PBE1PBE/6-31G(d',p') Opt Int=(Grid=SuperFineGrid)  SCF=(XQC, MaxCycle=500) SCRF=(Solvent=Ethanol)

mol1

0 1
F          0.87325        0.22926       -0.35511
C          2.20811        0.10166       -0.29377
C          2.97320        1.23819       -0.03784
C          4.36302        1.13944        0.01100
C          4.97971       -0.09428       -0.19929
C          4.20536       -1.23043       -0.45453
C          2.80763       -1.14773       -0.49383
N          2.05476       -2.29848       -0.78820
N          1.43325       -2.68058        0.22903
C          0.66644       -3.82330       -0.08011
C          1.20034       -5.11921        0.09741
N          2.45953       -5.30724        0.70792
C          0.38246       -6.23030       -0.13883
C         -0.91851       -6.06777       -0.62114
C         -1.43117       -4.78988       -0.83304
C         -0.64487       -3.67215       -0.55265
H          2.47818        2.19171        0.11658
H          4.96488        2.02349        0.20761
H          6.06414       -0.17243       -0.16830
H          4.69168       -2.18729       -0.62533
H          3.04223       -4.47867        0.60122
H          2.92546       -6.16037        0.41967
H          0.75326       -7.23248        0.05826
H         -1.53697       -6.94073       -0.81421
H         -2.44664       -4.66251       -1.19895
H         -1.04922       -2.67324       -0.69505
 
