%chk=mol.chk
%nproc=24
%mem=20GB

# PBE1PBE/6-31G(d',p') Opt Int=(Grid=SuperFineGrid)  SCF=(XQC, MaxCycle=500) SCRF=(Solvent=Ethanol)

mol1

0 1
C          1.75312       -0.74417        0.71815
C          3.11535       -0.31341        0.34232
N          4.01937       -1.29539        0.17970
O          5.22383       -0.67695       -0.05079
C          5.04571        0.66652       -0.05547
C          6.27194        1.47176       -0.20063
C          3.70937        0.96119        0.13365
N          3.28608        2.29229        0.29312
N          2.30204        2.85618       -0.24001
C          1.03983        2.24229       -0.28892
C          0.02597        2.59766        0.64174
N          0.26922        3.48653        1.70713
C         -1.19738        1.91053        0.60633
C         -1.48644        1.01935       -0.43113
C         -0.53974        0.78699       -1.42474
C          0.71063        1.40441       -1.36356
H          1.79251       -1.64177        1.34795
H          1.19125       -1.02685       -0.17646
H          1.21680        0.01285        1.28542
H          7.15815        0.83268       -0.29675
H          6.41868        2.10892        0.67508
H          6.21702        2.10497       -1.09115
H          1.02392        4.13151        1.48369
H         -0.56334        3.96862        2.02705
H         -1.96330        2.11220        1.36208
H         -2.43850        0.49983       -0.45030
H         -0.76234        0.09381       -2.23340
H          1.45237        1.19558       -2.13069
 
